(set-logic QF_SLIA)
(declare-fun var0 () String)
(assert (str.in_re var0 (re.++ ((_ re.loop 16 315) (re.++ (re.union (str.to_re "tp") (re.union (str.to_re "O") (re.union (str.to_re "G'") (str.to_re "\u0022")))) (re.++ (re.union (str.to_re "(7r") (re.union (str.to_re ".Kw") (re.union (str.to_re "]") (str.to_re "\\")))) (re.++ (re.union (str.to_re "l~") (re.union (str.to_re "/") (re.union (str.to_re "\u0022") (str.to_re "\u0022\u0022s")))) (re.union (str.to_re "#U") (re.union (str.to_re "t") (re.union (str.to_re "<") (str.to_re "J")))))))) (re.++ ((_ re.loop 9 671) (re.++ (re.union (str.to_re "??&") (re.union (str.to_re "b") (re.union (str.to_re "kM") (str.to_re "#")))) (re.++ (re.union (str.to_re ",X0") (re.union (str.to_re ".:&") (re.union (str.to_re "qv") (str.to_re "uD")))) (re.++ (re.union (str.to_re "4L") (re.union (str.to_re "y+_") (re.union (str.to_re "3") (str.to_re ",")))) (re.union (str.to_re "G$l") (re.union (str.to_re "S|e") (re.union (str.to_re "tc8") (str.to_re "L")))))))) (re.++ ((_ re.loop 19 79) (re.++ (re.union (str.to_re "BS") (re.union (str.to_re "Xej") (re.union (str.to_re "r") (str.to_re ")<;")))) (re.++ (re.union (str.to_re "w") (re.union (str.to_re "+%P") (re.union (str.to_re "vt") (str.to_re "{")))) (re.++ (re.union (str.to_re ",V]") (re.union (str.to_re "Vm^") (re.union (str.to_re "+-") (str.to_re "<")))) (re.union (str.to_re "^") (re.union (str.to_re "X>&") (re.union (str.to_re "n{3") (str.to_re "I")))))))) ((_ re.loop 8 537) (re.++ (re.union (str.to_re "2NZ") (re.union (str.to_re "fZr") (re.union (str.to_re "p.") (str.to_re "t")))) (re.++ (re.union (str.to_re "`") (re.union (str.to_re "7s") (re.union (str.to_re "v;") (str.to_re "|")))) (re.++ (re.union (str.to_re "gG?") (re.union (str.to_re "cW") (re.union (str.to_re "ro") (str.to_re "8>:")))) (re.union (str.to_re "-") (re.union (str.to_re "nx") (re.union (str.to_re "x") (str.to_re ">")))))))))))))
(assert (not (str.in_re var0 (re.++ ((_ re.loop 13 498) (re.++ (re.union (str.to_re ":63") (re.union (str.to_re "ye") (re.union (str.to_re "_") (str.to_re "K")))) (re.++ (re.union (str.to_re "K") (re.union (str.to_re "dq") (re.union (str.to_re ":Z*") (str.to_re "H%")))) (re.++ (re.union (str.to_re "+*") (re.union (str.to_re "R7") (re.union (str.to_re ">*") (str.to_re "93v")))) (re.union (str.to_re "&") (re.union (str.to_re "j") (re.union (str.to_re ",") (str.to_re "~A")))))))) (re.++ ((_ re.loop 4 182) (re.++ (re.union (str.to_re "}Ts") (re.union (str.to_re "C") (re.union (str.to_re "9-}") (str.to_re "/=%")))) (re.++ (re.union (str.to_re "!") (re.union (str.to_re "xo") (re.union (str.to_re "C") (str.to_re "_")))) (re.++ (re.union (str.to_re "-") (re.union (str.to_re "b'r") (re.union (str.to_re "Zg") (str.to_re "'O")))) (re.union (str.to_re "rq") (re.union (str.to_re "2") (re.union (str.to_re ";") (str.to_re "d")))))))) (re.++ ((_ re.loop 12 899) (re.++ (re.union (str.to_re ">kg") (re.union (str.to_re ".%") (re.union (str.to_re "'") (str.to_re ")")))) (re.++ (re.union (str.to_re "M") (re.union (str.to_re "Y") (re.union (str.to_re "MH<") (str.to_re "W0")))) (re.++ (re.union (str.to_re "I") (re.union (str.to_re "\\H)") (re.union (str.to_re "@") (str.to_re "B")))) (re.union (str.to_re "P") (re.union (str.to_re "`") (re.union (str.to_re "gn\\") (str.to_re "jdK")))))))) ((_ re.loop 20 77) (re.++ (re.union (str.to_re "R_P") (re.union (str.to_re "`") (re.union (str.to_re "6") (str.to_re "[")))) (re.++ (re.union (str.to_re "X6|") (re.union (str.to_re "a}'") (re.union (str.to_re "BP") (str.to_re "+x")))) (re.++ (re.union (str.to_re "Qf8") (re.union (str.to_re ".") (re.union (str.to_re "_") (str.to_re "H")))) (re.union (str.to_re "$-") (re.union (str.to_re "(@C") (re.union (str.to_re "V") (str.to_re "uc"))))))))))))))
(assert (not (str.in_re var0 (re.++ (re.* re.allchar) (re.++ (re.union (str.to_re "<") (re.union (str.to_re ">") (re.union (str.to_re "'") (re.union (str.to_re "\u0022") (str.to_re "&"))))) (re.* re.allchar))))))
(assert (<= 50 (str.len var0)))
(check-sat)
(get-model)
